outputs/case_431.model.txt
unable_to_fulfill_contract = False
capital_adequacy_ratio = 45
financial_or_business_deterioration = False
risk_to_insured_interest = False
net_worth_ratio = 3/2
other_major_financial_impact = False
improvement_plan_approved = False
net_worth = -10
capital_level_4_measures_executed = True
payment_exceeding_limit = False
improvement_plan_effective = False
profit_loss_accelerated_deterioration = False
contract_or_major_commitment_made = False
improvement_plan_submitted = False
unable_to_pay_debt = False
violation_internal_control_execution = False
internal_handling_established = True
violation_143_5_or_143_6 = False
violation_138_2_etc = False
violation_loan_approval = False
violation_article_143_5_or_143_6_measures = False
violation_article_143 = False
violation_business_scope = False
violation_143 = False
capital_level_4_compliance = True
violation_internal_handling_execution = False
internal_control_executed = True
violation_138 = False
prohibited_acts_without_supervisor_consent = False
internal_handling_executed = True
internal_control_established = True
significant_deterioration = False
violation_loan_limit_decision = False
violation_internal_handling = False
violation_loan_approval_flag = False
supervisory_measures_applicable = False
capital_level_4_noncompliance = False
violation_loan_guarantee_criminal_flag = False
improvement_plan_accelerated_deterioration = False
violation_loan_guarantee_criminal = False
capital_level = 4
violation_fund_management = False
violation_reserve_requirements = False
violation_loan_limit_decision_flag = False
improvement_plan_submitted_and_approved = False
violation_fund_management_rules = False
penalty = False
violation_internal_control = False